Maximize
 obj: 5 VAR1 + 4.5 VAR2 + 6 VAR3
Subject To
 c1: 6 VAR1 + 5 VAR2 + 8 VAR3 = 60
 c2: 16 VAR1 + 25 VAR2 + 18 VAR3 = 210
 c3: 1 VAR1 <= 8
Bounds
 0 <= VAR1 <= +inf
 0 <= VAR2 <= +inf
 0 <= VAR3 <= +inf
General
End
